Optimal - objective value 3.00000000
      0 x_0_0                       1                       0
      2 x_1_1                       1                       1
      4 x_2_1                       1                       0
      6 x_3_0                       1                       0
     10 x_4_0                       1                       0
     20 x_5_5                       1                       0
     22 x_6_1                       1                      -1
     28 x_7_0                       1                       0
     41 x_8_5                       1                       0
     46 x_9_1                       1                       0
     60 x_10_5                      1                       0
     71 x_11_5                      1                       0
     83 x_12_5                      1                       0
     92 x_13_1                      1                       0
    106 x_14_1                      1                       0
    125 x_15_5                      1                       0
    137 x_16_1                      1                       0
    153 x_17_0                      1                       0
    176 x_18_5                      1                       0
    190 x_19_0                      1                       1
    215 x_20_5                      1                       0
    232 x_21_1                      1                       0
    253 x_22_0                      1                       0
    276 x_23_0                      1                       0
    301 x_24_1                      1                       0
    325 x_25_0                      1                       0
    352 x_26_1                      1                       0
    383 x_27_5                      1                       0
